HUN,8,6,161
1,18,2,15,0,8,3,10,4,22,5,6
2,15,0,26,1,19,5,20,4,27,3,29
1,26,0,3,2,26,4,8,5,22,3,8
0,18,1,12,2,9,5,15,3,16,4,30
0,17,2,24,1,1,3,13,5,7,4,18
2,7,1,24,0,8,3,14,4,19,5,3
0,14,2,25,1,23,3,20,5,19,4,25
0,25,1,30,2,20,3,20,4,9,5,2
